WARNING: for repeatability, setting FPU to use double precision
============================[ Problem Statistics ]=============================
|                                                                             |
|  Number of variables:           100                                         |
|  Number of clauses:             449                                         |
|  Parse time:                   0.00 s                                       |
|  Eliminated clauses:           0.00 Mb                                      |
|  Simplification time:          0.00 s                                       |
|                                                                             |
============================[ Search Statistics ]==============================
| Conflicts |          ORIGINAL         |          LEARNT          | Progress |
|           |    Vars  Clauses Literals |    Limit  Clauses Lit/Cl |          |
===============================================================================
===============================================================================
restarts              : 1
conflicts             : 84             (35132 /sec)
decisions             : 120            (0.00 % random) (50188 /sec)
propagations          : 1828           (764534 /sec)
conflict literals     : 514            (9.19 % deleted)
Memory used           : 13.00 MB
CPU time              : 0.002391 s

SATISFIABLE
